* ENCODING=ISO-8859-1
NAME          ../../Software_Engineering/Spring_2018/github_files/BOMILP_instances/7x3x3x2x2/testp2.lp
ROWS
 N  OBJ     
 E  C3      
 E  C4      
 E  C5      
COLUMNS
    x0        OBJ                          0.46
    x0        C3                          11.82
    x0        C4                           5.69
    x0        C5                          10.33
    x1        OBJ                          0.64
    x1        C3                          14.43
    x1        C4                          16.74
    x1        C5                          19.23
    x2        OBJ                          5.88
    x2        C3                          14.08
    x2        C4                          18.79
    x2        C5                          14.25
    MARK0000  'MARKER'                 'INTORG'
    x3        OBJ                         -8.91
    x3        C3                           15.5
    x3        C4                           6.99
    x3        C5                           0.77
    x4        OBJ                        106.99
    x4        C3                          11.11
    x4        C4                          19.28
    x4        C5                           0.88
    x5        OBJ                         26.92
    x5        C3                           5.27
    x5        C4                          12.88
    x5        C5                           5.11
    x6        OBJ                        -43.83
    x6        C3                          14.75
    x6        C4                           14.9
    x6        C5                          13.15
    MARK0001  'MARKER'                 'INTEND'
    s0        C3                              1
    s1        C4                              1
    s2        C5                              1
RHS
    rhs       C3                          83.51
    rhs       C4                         127.75
    rhs       C5                          90.15
BOUNDS
 UP bnd       x3                              1
 UP bnd       x4                              1
 LI bnd       x5        0
 LI bnd       x6        0
ENDATA
